c description: Random 12-CNF over 20 variables and 12 clauses
c generator: CNFgen (0.9.3-1)
c copyright: (C) 2012-2022 Massimo Lauria <massimo.lauria@uniroma1.it>
c url: https://massimolauria.net/cnfgen
c command line: cnfgen randkcnf 12 20 12
c
p cnf 20 12
-1 4 6 -7 -8 9 10 14 -16 -17 -19 20 0
1 -2 5 6 -10 11 -13 14 -16 18 19 20 0
-2 4 5 -6 9 -10 11 -13 -14 -16 18 -20 0
-1 2 3 5 -7 -8 -12 -13 -14 -15 -18 -19 0
1 -2 -4 6 7 -9 11 12 -16 17 18 -20 0
-4 -5 -6 8 -11 -12 13 14 16 -17 -19 20 0
2 3 -5 -7 8 12 13 -14 -15 -16 18 19 0
4 -5 6 -7 -8 -11 14 -15 16 18 19 -20 0
1 3 4 -5 -7 -8 10 -13 -14 16 17 19 0
-2 -5 7 8 10 11 -12 13 -14 -15 -17 -19 0
1 -2 3 -4 8 9 13 15 -16 -18 -19 20 0
-1 -4 -6 8 9 10 -12 13 -15 -16 -17 20 0
